id: 1036
name: core4872-1529
group: miplib2010
method: 2

Gurobi 7.0.2 (linux64, Matlab) logging started Mon Mar 26 10:13:34 2018


Gurobi 7.0.2 (linux64) logging started Mon Mar 26 10:13:34 2018

Optimize a model with 4875 rows, 24656 columns and 218762 nonzeros
Coefficient statistics:
  Matrix range     [1e-01, 1e+02]
  Objective range  [1e-01, 1e+02]
  Bounds range     [1e+00, 1e+00]
  RHS range        [1e+00, 1e+10]
Warning: Model contains large rhs
         Consider reformulating model or setting NumericFocus parameter
         to avoid numerical issues.
Presolve removed 268 rows and 558 columns
Presolve time: 0.06s
Presolved: 4607 rows, 24098 columns, 184762 nonzeros

Ordering time: 0.18s

Barrier statistics:
 AA' NZ     : 1.302e+05
 Factor NZ  : 2.070e+06 (roughly 30 MBytes of memory)
 Factor Ops : 1.495e+09 (less than 1 second per iteration)
 Threads    : 4

                  Objective                Residual
Iter       Primal          Dual         Primal    Dual     Compl     Time
   0   9.35432004e+05 -3.74110033e+04  3.88e+05 8.39e-01  4.32e+01     0s
   1   1.18405077e+05 -4.02652619e+04  4.11e+04 3.73e-01  5.68e+00     0s
   2   2.03987924e+04 -4.65469527e+04  3.80e-01 1.46e-01  1.56e+00     0s
   3   8.66777815e+03 -1.76027929e+04  0.00e+00 5.19e-02  5.40e-01     0s
   4   3.65114674e+03 -1.40966206e+03  0.00e+00 1.33e-15  9.86e-02     1s
   5   1.91902862e+03  6.11828801e+02  0.00e+00 8.88e-16  2.52e-02     1s
   6   1.68665795e+03  1.06564549e+03  0.00e+00 8.88e-16  1.19e-02     1s
   7   1.60483499e+03  1.23523210e+03  0.00e+00 8.88e-16  7.11e-03     1s
   8   1.55886150e+03  1.38828796e+03  0.00e+00 1.11e-15  3.28e-03     1s
   9   1.53038146e+03  1.43407248e+03  0.00e+00 1.11e-15  1.85e-03     1s
  10   1.52008167e+03  1.47213559e+03  0.00e+00 8.88e-16  9.21e-04     1s
  11   1.51393714e+03  1.49490024e+03  0.00e+00 1.11e-15  3.66e-04     1s
  12   1.51184984e+03  1.50212116e+03  0.00e+00 1.11e-15  1.87e-04     1s
  13   1.51112446e+03  1.50466565e+03  0.00e+00 1.11e-15  1.24e-04     1s
  14   1.51034531e+03  1.50726068e+03  0.00e+00 8.88e-16  5.92e-05     1s
  15   1.51005140e+03  1.50841527e+03  0.00e+00 8.88e-16  3.14e-05     1s
  16   1.50980863e+03  1.50928958e+03  0.00e+00 8.88e-16  9.95e-06     1s
  17   1.50976125e+03  1.50959164e+03  0.00e+00 1.33e-15  3.25e-06     1s
  18   1.50974214e+03  1.50965229e+03  0.00e+00 8.88e-16  1.72e-06     1s
  19   1.50973187e+03  1.50968433e+03  0.00e+00 1.11e-15  9.08e-07     1s
  20   1.50972376e+03  1.50969689e+03  0.00e+00 1.11e-15  5.14e-07     1s
  21   1.50972055e+03  1.50971156e+03  0.00e+00 1.11e-15  1.72e-07     1s
  22   1.50971892e+03  1.50971568e+03  0.00e+00 1.11e-15  6.20e-08     1s
  23   1.50971868e+03  1.50971761e+03  0.00e+00 1.11e-15  2.05e-08     1s
  24   1.50971859e+03  1.50971831e+03  0.00e+00 1.11e-15  5.39e-09     1s
  25   1.50971858e+03  1.50971850e+03  0.00e+00 1.11e-15  1.43e-09     1s
  26   1.50971856e+03  1.50971854e+03  1.43e-12 1.11e-15  4.07e-10     1s
  27   1.50971856e+03  1.50971856e+03  2.92e-10 1.11e-15  2.27e-11     1s

Barrier solved model in 27 iterations and 1.33 seconds
Optimal objective 1.50971856e+03

Crossover log...

       0 DPushes remaining with DInf 1.4191981e-12                 1s

    5347 PPushes remaining with PInf 1.6457933e-05                 1s
       0 PPushes remaining with PInf 0.0000000e+00                 2s

  Push phase complete: Pinf 0.0000000e+00, Dinf 1.2613105e-12      2s

Iteration    Objective       Primal Inf.    Dual Inf.      Time
    6341    1.5097186e+03   0.000000e+00   0.000000e+00      2s
Extra 8 simplex iterations after uncrush
    6349    1.5097186e+03   0.000000e+00   0.000000e+00      2s

Solved in 6349 iterations and 1.64 seconds
Optimal objective  1.509718561e+03
status: OPTIMAL
